(set-logic QF_S)
(declare-fun _var_0xINPUT_129756_() String)
(declare-fun __woorpje_diseq_pref0_() String)
(declare-fun __woorpje_diseq_suf_l0_() String)
(declare-fun __woorpje_diseq_suf_r0_() String)
(assert (=(str.++ _var_0xINPUT_129756_  "")(str.++ __woorpje_diseq_pref0_  "K" __woorpje_diseq_suf_l0_  "")) )
(assert (=(str.++  "32GSDK6BE5" "")(str.++ __woorpje_diseq_pref0_  "5" __woorpje_diseq_suf_r0_  "")) )
(check-sat)
